44
16
8
10 0
13 4
6 5
1 2
16 3
14 8
4 3
3 3
12 5
10 5
14 5
15 4
4 0
14 4
14 5
1 6
11 4
3 1
1 3
7 2
5 7
7 2
15 2
11 7
5 3
2 8
16 5
16 7
11 0
4 7
1 2
12 2
16 4
1 3
7 3
9 1
9 2
13 0
1 7
10 8
1 7
9 8
15 2
13 8
